N = 6;
D = 5;
B = 9;
digits = 
  [| 0,0,0,0,2,0,
   | 0,3,0,0,0,0,
   | 0,4,0,2,3,0,
   | 0,0,0,0,0,0,
   | 0,0,0,0,0,0,
   | 0,0,0,0,0,0 |];
blocks = 
  [| a,b,c,c,c,c,
   | b,b,b,d,c,e,
   | f,b,d,d,d,e,
   | f,g,g,d,e,e,
   | f,f,g,g,e,i,
   | f,h,h,h,h,i |];

% 1, 2, 5, 3, 2, 4, 
% 5, 3, 1, 4, 1, 5, 
% 2, 4, 5, 2, 3, 2, 
% 3, 1, 3, 1, 4, 1, 
% 4, 5, 4, 2, 3, 2, 
% 1, 2, 3, 1, 4, 1, 
